NAME          DCAP_3_4_2_500_SS255
ROWS
 N  OBJ
 L  CON1
 L  CON2
 L  CON3
 L  CON4
 L  CON5
 L  CON6
 L  CON7
 L  CON8
 L  CON9
 L  CON10
 L  CON11
 L  CON12
 E  CON13
 E  CON14
 E  CON15
 E  CON16
 E  CON17
 E  CON18
 E  CON19
 E  CON20
COLUMNS
    x[1,1]    OBJ       6.180167      CON1      1.000000    
    x[1,1]    CON7      -1.000000     CON8      -1.000000   
    x[1,2]    OBJ       5.039546      CON2      1.000000    
    x[1,2]    CON8      -1.000000   
    x[2,1]    OBJ       6.732585      CON3      1.000000    
    x[2,1]    CON9      -1.000000     CON10     -1.000000   
    x[2,2]    OBJ       7.443064      CON4      1.000000    
    x[2,2]    CON10     -1.000000   
    x[3,1]    OBJ       6.563535      CON5      1.000000    
    x[3,1]    CON11     -1.000000     CON12     -1.000000   
    x[3,2]    OBJ       6.054841      CON6      1.000000    
    x[3,2]    CON12     -1.000000   
    MARKER    'MARKER'                'INTORG'
    u[1,1]    OBJ       48.076654     CON1      -1.000000   
    u[1,2]    OBJ       49.466655     CON2      -1.000000   
    u[2,1]    OBJ       49.996186     CON3      -1.000000   
    u[2,2]    OBJ       32.230043     CON4      -1.000000   
    u[3,1]    OBJ       20.066487     CON5      -1.000000   
    u[3,2]    OBJ       27.484319     CON6      -1.000000   
    y[1,1,1]  OBJ       9.643552      CON7      0.753818    
    y[1,1,1]  CON13     1.000000    
    y[1,1,2]  OBJ       9.480028      CON8      0.988686    
    y[1,1,2]  CON14     1.000000    
    y[1,2,1]  OBJ       8.743606      CON7      1.262532    
    y[1,2,1]  CON15     1.000000    
    y[1,2,2]  OBJ       5.632491      CON8      0.503592    
    y[1,2,2]  CON16     1.000000    
    y[1,3,1]  OBJ       9.774151      CON7      1.426944    
    y[1,3,1]  CON17     1.000000    
    y[1,3,2]  OBJ       7.392928      CON8      1.036743    
    y[1,3,2]  CON18     1.000000    
    y[1,4,1]  OBJ       8.517438      CON7      0.797288    
    y[1,4,1]  CON19     1.000000    
    y[1,4,2]  OBJ       8.069686      CON8      1.390711    
    y[1,4,2]  CON20     1.000000    
    y[2,1,1]  OBJ       8.464725      CON9      0.753818    
    y[2,1,1]  CON13     1.000000    
    y[2,1,2]  OBJ       7.750510      CON10     0.988686    
    y[2,1,2]  CON14     1.000000    
    y[2,2,1]  OBJ       5.796514      CON9      1.262532    
    y[2,2,1]  CON15     1.000000    
    y[2,2,2]  OBJ       9.790933      CON10     0.503592    
    y[2,2,2]  CON16     1.000000    
    y[2,3,1]  OBJ       5.813496      CON9      1.426944    
    y[2,3,1]  CON17     1.000000    
    y[2,3,2]  OBJ       8.686075      CON10     1.036743    
    y[2,3,2]  CON18     1.000000    
    y[2,4,1]  OBJ       8.104715      CON9      0.797288    
    y[2,4,1]  CON19     1.000000    
    y[2,4,2]  OBJ       5.329832      CON10     1.390711    
    y[2,4,2]  CON20     1.000000    
    y[3,1,1]  OBJ       9.397603      CON11     0.753818    
    y[3,1,1]  CON13     1.000000    
    y[3,1,2]  OBJ       7.968249      CON12     0.988686    
    y[3,1,2]  CON14     1.000000    
    y[3,2,1]  OBJ       6.590514      CON11     1.262532    
    y[3,2,1]  CON15     1.000000    
    y[3,2,2]  OBJ       6.018337      CON12     0.503592    
    y[3,2,2]  CON16     1.000000    
    y[3,3,1]  OBJ       5.556236      CON11     1.426944    
    y[3,3,1]  CON17     1.000000    
    y[3,3,2]  OBJ       9.579033      CON12     1.036743    
    y[3,3,2]  CON18     1.000000    
    y[3,4,1]  OBJ       6.769432      CON11     0.797288    
    y[3,4,1]  CON19     1.000000    
    y[3,4,2]  OBJ       5.548257      CON12     1.390711    
    y[3,4,2]  CON20     1.000000    
    z[1,1]    OBJ       727.549565    CON13     1.000000    
    z[1,2]    OBJ       592.286479    CON14     1.000000    
    z[2,1]    OBJ       978.573333    CON15     1.000000    
    z[2,2]    OBJ       927.907181    CON16     1.000000    
    z[3,1]    OBJ       956.461426    CON17     1.000000    
    z[3,2]    OBJ       778.028536    CON18     1.000000    
    z[4,1]    OBJ       750.108518    CON19     1.000000    
    z[4,2]    OBJ       567.415449    CON20     1.000000    
    MARKER    'MARKER'                 'INTEND'
RHS
    RHS       CON1      -0.000000     CON2      -0.000000   
    RHS       CON3      -0.000000     CON4      -0.000000   
    RHS       CON5      -0.000000     CON6      -0.000000   
    RHS       CON7      -0.000000     CON8      -0.000000   
    RHS       CON9      -0.000000     CON10     -0.000000   
    RHS       CON11     -0.000000     CON12     -0.000000   
    RHS       CON13     1.000000      CON14     1.000000    
    RHS       CON15     1.000000      CON16     1.000000    
    RHS       CON17     1.000000      CON18     1.000000    
    RHS       CON19     1.000000      CON20     1.000000    
BOUNDS
 BV BOUND     u[1,1]  
 BV BOUND     u[1,2]  
 BV BOUND     u[2,1]  
 BV BOUND     u[2,2]  
 BV BOUND     u[3,1]  
 BV BOUND     u[3,2]  
 BV BOUND     y[1,1,1]
 BV BOUND     y[1,1,2]
 BV BOUND     y[1,2,1]
 BV BOUND     y[1,2,2]
 BV BOUND     y[1,3,1]
 BV BOUND     y[1,3,2]
 BV BOUND     y[1,4,1]
 BV BOUND     y[1,4,2]
 BV BOUND     y[2,1,1]
 BV BOUND     y[2,1,2]
 BV BOUND     y[2,2,1]
 BV BOUND     y[2,2,2]
 BV BOUND     y[2,3,1]
 BV BOUND     y[2,3,2]
 BV BOUND     y[2,4,1]
 BV BOUND     y[2,4,2]
 BV BOUND     y[3,1,1]
 BV BOUND     y[3,1,2]
 BV BOUND     y[3,2,1]
 BV BOUND     y[3,2,2]
 BV BOUND     y[3,3,1]
 BV BOUND     y[3,3,2]
 BV BOUND     y[3,4,1]
 BV BOUND     y[3,4,2]
 BV BOUND     z[1,1]  
 BV BOUND     z[1,2]  
 BV BOUND     z[2,1]  
 BV BOUND     z[2,2]  
 BV BOUND     z[3,1]  
 BV BOUND     z[3,2]  
 BV BOUND     z[4,1]  
 BV BOUND     z[4,2]  
ENDATA
